Minimize
  obj: x0 + x1 + x2 + x3 + x4 + x5

Subject To
  c0: x2 + x4 = 173
  c1: x2 + x3 + x5 = 179
  c2: x1 + x2 + x3 = 173
  c3: x0 + x3 + x4 + x5 = 48
  c4: x0 + x1 + x3 = 29

Bounds
  x0 >= 0
  x1 >= 0
  x2 >= 0
  x3 >= 0
  x4 >= 0
  x5 >= 0

Generals
  x0 x1 x2 x3 x4 x5

End
